p cnf 339 1227
5 6 7 8 9 0
10 11 12 13 14 0
15 16 17 18 19 0
20 21 22 23 24 0
25 26 27 28 29 0
30 31 32 33 34 0
35 36 37 38 39 0
40 41 42 43 44 0
45 46 47 48 49 0
50 51 52 53 54 0
55 56 57 58 59 0
60 61 62 63 64 0
65 66 67 68 69 0
70 71 72 73 74 0
75 76 77 78 79 0
80 81 82 83 84 0
85 86 87 88 89 0
90 91 92 93 94 0
95 96 97 98 99 0
100 101 102 103 104 0
105 106 107 108 109 0
110 111 112 113 114 0
115 116 117 118 119 0
120 121 122 123 124 0
125 126 127 128 129 0
130 131 132 133 134 0
135 136 137 138 139 0
140 141 142 143 144 0
145 146 147 148 149 0
150 151 152 153 154 0
155 156 157 158 159 0
160 161 162 163 164 0
165 166 167 168 169 0
170 171 172 173 174 0
175 176 177 178 179 0
180 181 182 183 184 0
185 186 187 188 189 0
190 191 192 193 194 0
195 196 197 198 199 0
200 201 202 203 204 0
205 206 207 208 209 0
210 211 212 213 214 0
215 216 217 218 219 0
220 221 222 223 224 0
225 226 227 228 229 0
230 231 232 233 234 0
235 236 237 238 239 0
240 241 242 243 244 0
245 246 247 248 249 0
250 251 252 253 254 0
255 256 257 258 259 0
260 261 262 263 264 0
265 266 267 268 269 0
270 271 272 273 274 0
275 276 277 278 279 0
280 281 282 283 284 0
285 286 287 288 289 0
290 291 292 293 294 0
295 296 297 298 299 0
300 301 302 303 304 0
305 306 307 308 309 0
310 311 312 313 314 0
315 316 317 318 319 0
320 321 322 323 324 0
325 326 327 328 329 0
330 331 332 333 334 0
335 336 337 338 339 0
-5 -165 0
-6 -166 0
-7 -167 0
-8 -168 0
-9 -169 0
-5 -10 0
-6 -11 0
-7 -12 0
-8 -13 0
-9 -14 0
-5 -20 0
-6 -21 0
-7 -22 0
-8 -23 0
-9 -24 0
-5 -45 0
-6 -46 0
-7 -47 0
-8 -48 0
-9 -49 0
-5 -55 0
-6 -56 0
-7 -57 0
-8 -58 0
-9 -59 0
-5 -120 0
-6 -121 0
-7 -122 0
-8 -123 0
-9 -124 0
-5 -130 0
-6 -131 0
-7 -132 0
-8 -133 0
-9 -134 0
-5 -155 0
-6 -156 0
-7 -157 0
-8 -158 0
-9 -159 0
-10 -160 0
-11 -161 0
-12 -162 0
-13 -163 0
-14 -164 0
-10 -15 0
-11 -16 0
-12 -17 0
-13 -18 0
-14 -19 0
-10 -40 0
-11 -41 0
-12 -42 0
-13 -43 0
-14 -44 0
-10 -50 0
-11 -51 0
-12 -52 0
-13 -53 0
-14 -54 0
-10 -115 0
-11 -116 0
-12 -117 0
-13 -118 0
-14 -119 0
-10 -125 0
-11 -126 0
-12 -127 0
-13 -128 0
-14 -129 0
-10 -150 0
-11 -151 0
-12 -152 0
-13 -153 0
-14 -154 0
-15 -175 0
-16 -176 0
-17 -177 0
-18 -178 0
-19 -179 0
-15 -30 0
-16 -31 0
-17 -32 0
-18 -33 0
-19 -34 0
-15 -45 0
-16 -46 0
-17 -47 0
-18 -48 0
-19 -49 0
-15 -65 0
-16 -66 0
-17 -67 0
-18 -68 0
-19 -69 0
-15 -120 0
-16 -121 0
-17 -122 0
-18 -123 0
-19 -124 0
-15 -140 0
-16 -141 0
-17 -142 0
-18 -143 0
-19 -144 0
-15 -155 0
-16 -156 0
-17 -157 0
-18 -158 0
-19 -159 0
-20 -170 0
-21 -171 0
-22 -172 0
-23 -173 0
-24 -174 0
-20 -25 0
-21 -26 0
-22 -27 0
-23 -28 0
-24 -29 0
-20 -40 0
-21 -41 0
-22 -42 0
-23 -43 0
-24 -44 0
-20 -60 0
-21 -61 0
-22 -62 0
-23 -63 0
-24 -64 0
-20 -115 0
-21 -116 0
-22 -117 0
-23 -118 0
-24 -119 0
-20 -135 0
-21 -136 0
-22 -137 0
-23 -138 0
-24 -139 0
-20 -150 0
-21 -151 0
-22 -152 0
-23 -153 0
-24 -154 0
-25 -165 0
-26 -166 0
-27 -167 0
-28 -168 0
-29 -169 0
-25 -180 0
-26 -181 0
-27 -182 0
-28 -183 0
-29 -184 0
-25 -35 0
-26 -36 0
-27 -37 0
-28 -38 0
-29 -39 0
-25 -55 0
-26 -56 0
-27 -57 0
-28 -58 0
-29 -59 0
-25 -70 0
-26 -71 0
-27 -72 0
-28 -73 0
-29 -74 0
-25 -130 0
-26 -131 0
-27 -132 0
-28 -133 0
-29 -134 0
-25 -145 0
-26 -146 0
-27 -147 0
-28 -148 0
-29 -149 0
-30 -160 0
-31 -161 0
-32 -162 0
-33 -163 0
-34 -164 0
-30 -180 0
-31 -181 0
-32 -182 0
-33 -183 0
-34 -184 0
-30 -35 0
-31 -36 0
-32 -37 0
-33 -38 0
-34 -39 0
-30 -50 0
-31 -51 0
-32 -52 0
-33 -53 0
-34 -54 0
-30 -70 0
-31 -71 0
-32 -72 0
-33 -73 0
-34 -74 0
-30 -125 0
-31 -126 0
-32 -127 0
-33 -128 0
-34 -129 0
-30 -145 0
-31 -146 0
-32 -147 0
-33 -148 0
-34 -149 0
-35 -170 0
-36 -171 0
-37 -172 0
-38 -173 0
-39 -174 0
-35 -175 0
-36 -176 0
-37 -177 0
-38 -178 0
-39 -179 0
-35 -60 0
-36 -61 0
-37 -62 0
-38 -63 0
-39 -64 0
-35 -65 0
-36 -66 0
-37 -67 0
-38 -68 0
-39 -69 0
-35 -135 0
-36 -136 0
-37 -137 0
-38 -138 0
-39 -139 0
-35 -140 0
-36 -141 0
-37 -142 0
-38 -143 0
-39 -144 0
-40 -190 0
-41 -191 0
-42 -192 0
-43 -193 0
-44 -194 0
-40 -200 0
-41 -201 0
-42 -202 0
-43 -203 0
-44 -204 0
-40 -80 0
-41 -81 0
-42 -82 0
-43 -83 0
-44 -84 0
-40 -90 0
-41 -91 0
-42 -92 0
-43 -93 0
-44 -94 0
-40 -120 0
-41 -121 0
-42 -122 0
-43 -123 0
-44 -124 0
-40 -130 0
-41 -131 0
-42 -132 0
-43 -133 0
-44 -134 0
-45 -185 0
-46 -186 0
-47 -187 0
-48 -188 0
-49 -189 0
-45 -195 0
-46 -196 0
-47 -197 0
-48 -198 0
-49 -199 0
-45 -75 0
-46 -76 0
-47 -77 0
-48 -78 0
-49 -79 0
-45 -85 0
-46 -86 0
-47 -87 0
-48 -88 0
-49 -89 0
-45 -115 0
-46 -116 0
-47 -117 0
-48 -118 0
-49 -119 0
-45 -125 0
-46 -126 0
-47 -127 0
-48 -128 0
-49 -129 0
-50 -190 0
-51 -191 0
-52 -192 0
-53 -193 0
-54 -194 0
-50 -210 0
-51 -211 0
-52 -212 0
-53 -213 0
-54 -214 0
-50 -80 0
-51 -81 0
-52 -82 0
-53 -83 0
-54 -84 0
-50 -100 0
-51 -101 0
-52 -102 0
-53 -103 0
-54 -104 0
-50 -120 0
-51 -121 0
-52 -122 0
-53 -123 0
-54 -124 0
-50 -140 0
-51 -141 0
-52 -142 0
-53 -143 0
-54 -144 0
-55 -185 0
-56 -186 0
-57 -187 0
-58 -188 0
-59 -189 0
-55 -205 0
-56 -206 0
-57 -207 0
-58 -208 0
-59 -209 0
-55 -75 0
-56 -76 0
-57 -77 0
-58 -78 0
-59 -79 0
-55 -95 0
-56 -96 0
-57 -97 0
-58 -98 0
-59 -99 0
-55 -115 0
-56 -116 0
-57 -117 0
-58 -118 0
-59 -119 0
-55 -135 0
-56 -136 0
-57 -137 0
-58 -138 0
-59 -139 0
-60 -200 0
-61 -201 0
-62 -202 0
-63 -203 0
-64 -204 0
-60 -215 0
-61 -216 0
-62 -217 0
-63 -218 0
-64 -219 0
-60 -90 0
-61 -91 0
-62 -92 0
-63 -93 0
-64 -94 0
-60 -105 0
-61 -106 0
-62 -107 0
-63 -108 0
-64 -109 0
-60 -130 0
-61 -131 0
-62 -132 0
-63 -133 0
-64 -134 0
-60 -145 0
-61 -146 0
-62 -147 0
-63 -148 0
-64 -149 0
-65 -195 0
-66 -196 0
-67 -197 0
-68 -198 0
-69 -199 0
-65 -215 0
-66 -216 0
-67 -217 0
-68 -218 0
-69 -219 0
-65 -85 0
-66 -86 0
-67 -87 0
-68 -88 0
-69 -89 0
-65 -105 0
-66 -106 0
-67 -107 0
-68 -108 0
-69 -109 0
-65 -125 0
-66 -126 0
-67 -127 0
-68 -128 0
-69 -129 0
-65 -145 0
-66 -146 0
-67 -147 0
-68 -148 0
-69 -149 0
-70 -205 0
-71 -206 0
-72 -207 0
-73 -208 0
-74 -209 0
-70 -210 0
-71 -211 0
-72 -212 0
-73 -213 0
-74 -214 0
-70 -95 0
-71 -96 0
-72 -97 0
-73 -98 0
-74 -99 0
-70 -100 0
-71 -101 0
-72 -102 0
-73 -103 0
-74 -104 0
-70 -135 0
-71 -136 0
-72 -137 0
-73 -138 0
-74 -139 0
-70 -140 0
-71 -141 0
-72 -142 0
-73 -143 0
-74 -144 0
-75 -165 0
-76 -166 0
-77 -167 0
-78 -168 0
-79 -169 0
-75 -220 0
-76 -221 0
-77 -222 0
-78 -223 0
-79 -224 0
-75 -110 0
-76 -111 0
-77 -112 0
-78 -113 0
-79 -114 0
-75 -155 0
-76 -156 0
-77 -157 0
-78 -158 0
-79 -159 0
-80 -160 0
-81 -161 0
-82 -162 0
-83 -163 0
-84 -164 0
-80 -220 0
-81 -221 0
-82 -222 0
-83 -223 0
-84 -224 0
-80 -110 0
-81 -111 0
-82 -112 0
-83 -113 0
-84 -114 0
-80 -150 0
-81 -151 0
-82 -152 0
-83 -153 0
-84 -154 0
-85 -175 0
-86 -176 0
-87 -177 0
-88 -178 0
-89 -179 0
-85 -220 0
-86 -221 0
-87 -222 0
-88 -223 0
-89 -224 0
-85 -110 0
-86 -111 0
-87 -112 0
-88 -113 0
-89 -114 0
-85 -155 0
-86 -156 0
-87 -157 0
-88 -158 0
-89 -159 0
-90 -170 0
-91 -171 0
-92 -172 0
-93 -173 0
-94 -174 0
-90 -220 0
-91 -221 0
-92 -222 0
-93 -223 0
-94 -224 0
-90 -110 0
-91 -111 0
-92 -112 0
-93 -113 0
-94 -114 0
-90 -150 0
-91 -151 0
-92 -152 0
-93 -153 0
-94 -154 0
-95 -165 0
-96 -166 0
-97 -167 0
-98 -168 0
-99 -169 0
-95 -180 0
-96 -181 0
-97 -182 0
-98 -183 0
-99 -184 0
-95 -220 0
-96 -221 0
-97 -222 0
-98 -223 0
-99 -224 0
-95 -110 0
-96 -111 0
-97 -112 0
-98 -113 0
-99 -114 0
-100 -160 0
-101 -161 0
-102 -162 0
-103 -163 0
-104 -164 0
-100 -180 0
-101 -181 0
-102 -182 0
-103 -183 0
-104 -184 0
-100 -220 0
-101 -221 0
-102 -222 0
-103 -223 0
-104 -224 0
-100 -110 0
-101 -111 0
-102 -112 0
-103 -113 0
-104 -114 0
-105 -170 0
-106 -171 0
-107 -172 0
-108 -173 0
-109 -174 0
-105 -175 0
-106 -176 0
-107 -177 0
-108 -178 0
-109 -179 0
-105 -220 0
-106 -221 0
-107 -222 0
-108 -223 0
-109 -224 0
-105 -110 0
-106 -111 0
-107 -112 0
-108 -113 0
-109 -114 0
-110 -185 0
-111 -186 0
-112 -187 0
-113 -188 0
-114 -189 0
-110 -190 0
-111 -191 0
-112 -192 0
-113 -193 0
-114 -194 0
-110 -195 0
-111 -196 0
-112 -197 0
-113 -198 0
-114 -199 0
-110 -200 0
-111 -201 0
-112 -202 0
-113 -203 0
-114 -204 0
-110 -205 0
-111 -206 0
-112 -207 0
-113 -208 0
-114 -209 0
-110 -210 0
-111 -211 0
-112 -212 0
-113 -213 0
-114 -214 0
-110 -215 0
-111 -216 0
-112 -217 0
-113 -218 0
-114 -219 0
-115 -230 0
-116 -231 0
-117 -232 0
-118 -233 0
-119 -234 0
-115 -240 0
-116 -241 0
-117 -242 0
-118 -243 0
-119 -244 0
-115 -265 0
-116 -266 0
-117 -267 0
-118 -268 0
-119 -269 0
-115 -275 0
-116 -276 0
-117 -277 0
-118 -278 0
-119 -279 0
-120 -225 0
-121 -226 0
-122 -227 0
-123 -228 0
-124 -229 0
-120 -235 0
-121 -236 0
-122 -237 0
-123 -238 0
-124 -239 0
-120 -260 0
-121 -261 0
-122 -262 0
-123 -263 0
-124 -264 0
-120 -270 0
-121 -271 0
-122 -272 0
-123 -273 0
-124 -274 0
-125 -230 0
-126 -231 0
-127 -232 0
-128 -233 0
-129 -234 0
-125 -250 0
-126 -251 0
-127 -252 0
-128 -253 0
-129 -254 0
-125 -265 0
-126 -266 0
-127 -267 0
-128 -268 0
-129 -269 0
-125 -285 0
-126 -286 0
-127 -287 0
-128 -288 0
-129 -289 0
-130 -225 0
-131 -226 0
-132 -227 0
-133 -228 0
-134 -229 0
-130 -245 0
-131 -246 0
-132 -247 0
-133 -248 0
-134 -249 0
-130 -260 0
-131 -261 0
-132 -262 0
-133 -263 0
-134 -264 0
-130 -280 0
-131 -281 0
-132 -282 0
-133 -283 0
-134 -284 0
-135 -240 0
-136 -241 0
-137 -242 0
-138 -243 0
-139 -244 0
-135 -255 0
-136 -256 0
-137 -257 0
-138 -258 0
-139 -259 0
-135 -275 0
-136 -276 0
-137 -277 0
-138 -278 0
-139 -279 0
-135 -290 0
-136 -291 0
-137 -292 0
-138 -293 0
-139 -294 0
-140 -235 0
-141 -236 0
-142 -237 0
-143 -238 0
-144 -239 0
-140 -255 0
-141 -256 0
-142 -257 0
-143 -258 0
-144 -259 0
-140 -270 0
-141 -271 0
-142 -272 0
-143 -273 0
-144 -274 0
-140 -290 0
-141 -291 0
-142 -292 0
-143 -293 0
-144 -294 0
-145 -245 0
-146 -246 0
-147 -247 0
-148 -248 0
-149 -249 0
-145 -250 0
-146 -251 0
-147 -252 0
-148 -253 0
-149 -254 0
-145 -280 0
-146 -281 0
-147 -282 0
-148 -283 0
-149 -284 0
-145 -285 0
-146 -286 0
-147 -287 0
-148 -288 0
-149 -289 0
-150 -230 0
-151 -231 0
-152 -232 0
-153 -233 0
-154 -234 0
-150 -240 0
-151 -241 0
-152 -242 0
-153 -243 0
-154 -244 0
-150 -300 0
-151 -301 0
-152 -302 0
-153 -303 0
-154 -304 0
-150 -310 0
-151 -311 0
-152 -312 0
-153 -313 0
-154 -314 0
-155 -225 0
-156 -226 0
-157 -227 0
-158 -228 0
-159 -229 0
-155 -235 0
-156 -236 0
-157 -237 0
-158 -238 0
-159 -239 0
-155 -295 0
-156 -296 0
-157 -297 0
-158 -298 0
-159 -299 0
-155 -305 0
-156 -306 0
-157 -307 0
-158 -308 0
-159 -309 0
-160 -320 0
-161 -321 0
-162 -322 0
-163 -323 0
-164 -324 0
-160 -230 0
-161 -231 0
-162 -232 0
-163 -233 0
-164 -234 0
-160 -250 0
-161 -251 0
-162 -252 0
-163 -253 0
-164 -254 0
-160 -300 0
-161 -301 0
-162 -302 0
-163 -303 0
-164 -304 0
-165 -225 0
-166 -226 0
-167 -227 0
-168 -228 0
-169 -229 0
-165 -245 0
-166 -246 0
-167 -247 0
-168 -248 0
-169 -249 0
-165 -295 0
-166 -296 0
-167 -297 0
-168 -298 0
-169 -299 0
-165 -315 0
-166 -316 0
-167 -317 0
-168 -318 0
-169 -319 0
-170 -325 0
-171 -326 0
-172 -327 0
-173 -328 0
-174 -329 0
-170 -240 0
-171 -241 0
-172 -242 0
-173 -243 0
-174 -244 0
-170 -255 0
-171 -256 0
-172 -257 0
-173 -258 0
-174 -259 0
-170 -310 0
-171 -311 0
-172 -312 0
-173 -313 0
-174 -314 0
-175 -325 0
-176 -326 0
-177 -327 0
-178 -328 0
-179 -329 0
-175 -235 0
-176 -236 0
-177 -237 0
-178 -238 0
-179 -239 0
-175 -255 0
-176 -256 0
-177 -257 0
-178 -258 0
-179 -259 0
-175 -305 0
-176 -306 0
-177 -307 0
-178 -308 0
-179 -309 0
-180 -320 0
-181 -321 0
-182 -322 0
-183 -323 0
-184 -324 0
-180 -245 0
-181 -246 0
-182 -247 0
-183 -248 0
-184 -249 0
-180 -250 0
-181 -251 0
-182 -252 0
-183 -253 0
-184 -254 0
-180 -315 0
-181 -316 0
-182 -317 0
-183 -318 0
-184 -319 0
-185 -330 0
-186 -331 0
-187 -332 0
-188 -333 0
-189 -334 0
-185 -265 0
-186 -266 0
-187 -267 0
-188 -268 0
-189 -269 0
-185 -275 0
-186 -276 0
-187 -277 0
-188 -278 0
-189 -279 0
-190 -330 0
-191 -331 0
-192 -332 0
-193 -333 0
-194 -334 0
-190 -260 0
-191 -261 0
-192 -262 0
-193 -263 0
-194 -264 0
-190 -270 0
-191 -271 0
-192 -272 0
-193 -273 0
-194 -274 0
-195 -330 0
-196 -331 0
-197 -332 0
-198 -333 0
-199 -334 0
-195 -265 0
-196 -266 0
-197 -267 0
-198 -268 0
-199 -269 0
-195 -285 0
-196 -286 0
-197 -287 0
-198 -288 0
-199 -289 0
-200 -330 0
-201 -331 0
-202 -332 0
-203 -333 0
-204 -334 0
-200 -260 0
-201 -261 0
-202 -262 0
-203 -263 0
-204 -264 0
-200 -280 0
-201 -281 0
-202 -282 0
-203 -283 0
-204 -284 0
-205 -330 0
-206 -331 0
-207 -332 0
-208 -333 0
-209 -334 0
-205 -275 0
-206 -276 0
-207 -277 0
-208 -278 0
-209 -279 0
-205 -290 0
-206 -291 0
-207 -292 0
-208 -293 0
-209 -294 0
-210 -330 0
-211 -331 0
-212 -332 0
-213 -333 0
-214 -334 0
-210 -270 0
-211 -271 0
-212 -272 0
-213 -273 0
-214 -274 0
-210 -290 0
-211 -291 0
-212 -292 0
-213 -293 0
-214 -294 0
-215 -330 0
-216 -331 0
-217 -332 0
-218 -333 0
-219 -334 0
-215 -280 0
-216 -281 0
-217 -282 0
-218 -283 0
-219 -284 0
-215 -285 0
-216 -286 0
-217 -287 0
-218 -288 0
-219 -289 0
-220 -320 0
-221 -321 0
-222 -322 0
-223 -323 0
-224 -324 0
-220 -325 0
-221 -326 0
-222 -327 0
-223 -328 0
-224 -329 0
-220 -295 0
-221 -296 0
-222 -297 0
-223 -298 0
-224 -299 0
-220 -300 0
-221 -301 0
-222 -302 0
-223 -303 0
-224 -304 0
-220 -305 0
-221 -306 0
-222 -307 0
-223 -308 0
-224 -309 0
-220 -310 0
-221 -311 0
-222 -312 0
-223 -313 0
-224 -314 0
-220 -315 0
-221 -316 0
-222 -317 0
-223 -318 0
-224 -319 0
-225 -335 0
-226 -336 0
-227 -337 0
-228 -338 0
-229 -339 0
-230 -335 0
-231 -336 0
-232 -337 0
-233 -338 0
-234 -339 0
-235 -335 0
-236 -336 0
-237 -337 0
-238 -338 0
-239 -339 0
-240 -335 0
-241 -336 0
-242 -337 0
-243 -338 0
-244 -339 0
-245 -335 0
-246 -336 0
-247 -337 0
-248 -338 0
-249 -339 0
-250 -335 0
-251 -336 0
-252 -337 0
-253 -338 0
-254 -339 0
-255 -335 0
-256 -336 0
-257 -337 0
-258 -338 0
-259 -339 0
-260 -335 0
-261 -336 0
-262 -337 0
-263 -338 0
-264 -339 0
-265 -335 0
-266 -336 0
-267 -337 0
-268 -338 0
-269 -339 0
-270 -335 0
-271 -336 0
-272 -337 0
-273 -338 0
-274 -339 0
-275 -335 0
-276 -336 0
-277 -337 0
-278 -338 0
-279 -339 0
-280 -335 0
-281 -336 0
-282 -337 0
-283 -338 0
-284 -339 0
-285 -335 0
-286 -336 0
-287 -337 0
-288 -338 0
-289 -339 0
-290 -335 0
-291 -336 0
-292 -337 0
-293 -338 0
-294 -339 0
-295 -335 0
-296 -336 0
-297 -337 0
-298 -338 0
-299 -339 0
-300 -335 0
-301 -336 0
-302 -337 0
-303 -338 0
-304 -339 0
-305 -335 0
-306 -336 0
-307 -337 0
-308 -338 0
-309 -339 0
-310 -335 0
-311 -336 0
-312 -337 0
-313 -338 0
-314 -339 0
-315 -335 0
-316 -336 0
-317 -337 0
-318 -338 0
-319 -339 0
-320 -335 0
-321 -336 0
-322 -337 0
-323 -338 0
-324 -339 0
-325 -335 0
-326 -336 0
-327 -337 0
-328 -338 0
-329 -339 0
-330 -335 0
-331 -336 0
-332 -337 0
-333 -338 0
-334 -339 0
